2283.0 33481.0 
2267.0 33655.0 
2253.0 34372.0 
2398.0 32860.0 
2406.0 32815.0 
2351.0 32909.0 
2295.0 33369.0 
2258.0 33731.0 
2351.0 32909.0 
2432.0 32777.0 
2260.0 33665.0 
2279.0 33602.0 
2290.0 33438.0 
2255.0 33744.0 
2324.0 33047.0 
2315.0 33320.0 
2254.0 33757.0 
